Route #1: 1 1 41 53 54 18 23 19 55 1 
Route #2: 1 52 20 17 56 35 44 30 1 
Route #3: 1 7 57 11 31 45 34 43 38 25 33 1 
Route #4: 1 13 22 64 63 37 62 16 50 24 1 
Route #5: 1 51 48 26 2 49 39 15 1 
Route #6: 1 42 5 4 60 21 3 29 14 27 1 
Route #7: 1 32 58 40 8 65 9 1 
Route #8: 1 6 10 46 47 28 1 
Route #9: 1 12 36 59 61 1 

Cost 1628.52
Time 0.6237


 * Another infos *

 Iterations: 66 Time: 0.6237 sec - 0.0104 min - 0.0002 horas
0.0000 h 0.0104 min
Problem dimension: 66
